data;

param num_top:=4;

#nodes and edges of the physical network
param n := 10;

set E := (1,2) (1,3) (1,7) (2,4) (2,7) (3,5) (4,8) (5,6) (5,7) (6,7) (6,9) (7,8) (7,9) (8,10) (9,10) ;

#nodes and edges of the virtual networks
set Nl[1] := 7 3 2 1 4 ;
set Nl[2] := 6 10 9 4 2 ;
set Nl[3] := 4 5 2 3 10 ;
set Nl[4] := 4 2 8 6 10 ;

set El[1] := (3,7) (2,3) (1,2) (1,4) (4,7) (2,4) (2,7) (1,3) (3,4) (1,7) ;
set El[2] := (6,10) (9,10) (4,9) (2,4) (2,6) (6,9) (4,6) (2,10) (4,10) (2,9) ;
set El[3] := (4,5) (2,5) (2,3) (3,10) (4,10) (2,4) (3,5) (3,4) (5,10) (2,10) ;
set El[4] := (2,4) (2,8) (6,8) (6,10) (4,10) (8,10) (2,10) (4,8) (4,6) (2,6) ;
